# Mock model config for testing - not a real potential
pair_style    lj/cut 5.0
pair_coeff    * * 0.1 3.0
