# MACE-OMAT-0 medium, mliap interface, D3 dispersion
# Model: https://github.com/ACEsuit/mace-omat
# Interface: mliap unified (Python-bridged)
# Atom types: 1=C
pair_style    hybrid/overlay mliap unified /path/to/mace-omat-0-medium-mliap_lammps.pt 0 dispersion/d3 bj pbe 10.0 8.0
pair_coeff    * * mliap C
pair_coeff    * * dispersion/d3 C
