# MACE-MP-0b3 medium, mliap interface, D3 dispersion, C+H+N+O
# Model: https://github.com/ACEsuit/mace-mp (0b3 release)
# Interface: mliap unified (Python-bridged)
# Atom types: 1=C  2=H  3=N  4=O
pair_style    hybrid/overlay mliap unified /path/to/mace-mp-0b3-medium-mliap_lammps.pt 0 dispersion/d3 bj pbe 10.0 8.0
pair_coeff    * * mliap C H N O
pair_coeff    * * dispersion/d3 C H N O
